
  32    4
  10   10   10   10

   0   0   0   0   0   6 2 3 4 7 9 19 
   8  10  10  10  10   5 14 13 12 6 5 
   3  10  10  10  10   5 18 16 14 10 8 
   6  10  10  10  10   3 18 12 8 
   9  10  10  10  10   5 31 30 18 16 10 
   4  10  10  10  10   5 31 22 16 11 10 
   2  10  10  10  10   4 30 18 16 14 
   3  10  10  10  10   8 31 30 29 26 22 20 17 15 
   5  10  10  10  10   7 31 30 29 26 17 16 15 
   1  10  10  10  10   5 29 26 20 17 15 
   6  10  10  10  10   7 30 27 26 25 23 21 20 
   7  10  10  10  10   4 31 30 26 16 
   1  10  10  10  10   4 29 26 17 15 
   7  10  10  10  10   3 29 26 15 
   1  10  10  10  10   4 27 25 23 21 
   7  10  10  10  10   3 25 23 20 
   3  10  10  10  10   3 25 23 21 
   7  10  10  10  10   2 25 22 
   8  10  10  10  10   2 23 21 
   5  10  10  10  10   2 28 24 
   8  10  10  10  10   1 24 
   1  10  10  10  10   1 23 
   9  10  10  10  10   1 32
   2  10  10  10  10   1 32
   4  10  10  10  10   1 32
   2  10  10  10  10   1 32
   9  10  10  10  10   1 32
   1  10  10  10  10   1 32
   7  10  10  10  10   1 32
   8  10  10  10  10   1 32
   8  10  10  10  10   1 32
   0   0   0   0   0   0 
